0
Node Left Objective IInf Best_Integer Best_Bound ItCnt Gap
0+ 0 nan nan 136.4723 0.0000 nan 100.00%
0+ 0 nan nan 99.1655 0.0000 nan 100.00%
0 0 0.0000 27 99.1655 0.0000 121 100.00%
0 0 0.0000 25 99.1655 Disjcuts:4 129 100.00%
0+ 0 nan nan 96.1103 0.0000 nan 100.00%
0 0 0.0000 25 96.1103 Cuts:2 139 100.00%
0 0 0.0000 27 96.1103 Cuts:4 152 100.00%
0+ 0 nan nan 93.4603 0.0000 nan 100.00%
0+ 0 nan nan 81.2111 0.0000 nan 100.00%
0 2 0.0000 25 81.2111 0.0000 152 100.00%
CPXPARAM_MIP_Cuts_LiftProj-Disjunctive:LiftProj 0
CPXPARAM_MIP_Cuts_LiftProj-Disjunctive:Disjunctive 1
1
Node Left Objective IInf Best_Integer Best_Bound ItCnt Gap
0+ 0 nan nan 136.4723 0.0000 nan 100.00%
0+ 0 nan nan 99.1655 0.0000 nan 100.00%
0 0 0.0000 27 99.1655 0.0000 118 100.00%
0+ 0 nan nan 78.3951 0.0000 nan 100.00%
0 0 0.0000 18 78.3951 LiftProj:1 124 100.00%
0 0 0.0000 19 78.3951 Cuts:4 143 100.00%
0 0 0.0000 19 78.3951 Disjcuts:1 157 100.00%
0+ 0 nan nan 56.5022 0.0000 nan 100.00%
0 2 0.0000 18 56.5022 0.0000 157 100.00%
CPXPARAM_MIP_Cuts_LiftProj-Disjunctive:LiftProj 0
CPXPARAM_MIP_Cuts_LiftProj-Disjunctive:Disjunctive 1
2
Node Left Objective IInf Best_Integer Best_Bound ItCnt Gap
0+ 0 nan nan 136.4723 0.0000 nan 100.00%
0+ 0 nan nan 69.8576 0.0000 nan 100.00%
0 0 0.0000 23 69.8576 0.0000 119 100.00%
0 0 0.0000 20 69.8576 LiftProj:2 132 100.00%
0+ 0 nan nan 68.3114 0.0000 nan 100.00%
0 0 0.0000 20 68.3114 Disjcuts:1 134 100.00%
0 0 0.0000 22 68.3114 Disjcuts:2 150 100.00%
0+ 0 nan nan 58.7959 0.0000 nan 100.00%
0 2 0.0000 19 58.7959 0.0000 150 100.00%
CPXPARAM_MIP_Cuts_LiftProj-Disjunctive:LiftProj 1
CPXPARAM_MIP_Cuts_LiftProj-Disjunctive:Disjunctive 0
3
Node Left Objective IInf Best_Integer Best_Bound ItCnt Gap
0+ 0 nan nan 136.4723 0.0000 nan 100.00%
0 0 0.0000 24 136.4723 0.0000 102 100.00%
0+ 0 nan nan 41.1390 0.0000 nan 100.00%
0+ 0 nan nan 32.1032 0.0000 nan 100.00%
0 2 0.0000 13 32.1032 0.0000 102 100.00%
CPXPARAM_MIP_Cuts_LiftProj-Disjunctive:LiftProj 0
CPXPARAM_MIP_Cuts_LiftProj-Disjunctive:Disjunctive 0
4
Node Left Objective IInf Best_Integer Best_Bound ItCnt Gap
0+ 0 nan nan 115.1924 0.0000 nan 100.00%
0+ 0 nan nan 108.1598 0.0000 nan 100.00%
0+ 0 nan nan 98.2525 0.0000 nan 100.00%
0 0 0.0000 27 98.2525 0.0000 128 100.00%
0 0 0.0000 24 98.2525 Cuts:2 132 100.00%
0+ 0 nan nan 89.4083 0.0000 nan 100.00%
0 0 0.0000 24 89.4083 Cuts:14 156 100.00%
0 0 0.0000 25 89.4083 Cuts:18 179 100.00%
0+ 0 nan nan 80.9364 0.0000 nan 100.00%
0 2 0.0000 24 80.9364 0.0000 179 100.00%
CPXPARAM_MIP_Cuts_LiftProj-Disjunctive:LiftProj 1
CPXPARAM_MIP_Cuts_LiftProj-Disjunctive:Disjunctive 0
5
Node Left Objective IInf Best_Integer Best_Bound ItCnt Gap
0+ 0 nan nan 115.1924 0.0000 nan 100.00%
0+ 0 nan nan 108.1598 0.0000 nan 100.00%
0+ 0 nan nan 79.8300 0.0000 nan 100.00%
0 0 0.0000 27 79.8300 0.0000 120 100.00%
0+ 0 nan nan 74.4608 0.0000 nan 100.00%
0+ 0 nan nan 65.3033 0.0000 nan 100.00%
0+ 0 nan nan 49.2242 0.0000 nan 100.00%
0 2 0.0000 18 49.2242 0.0000 120 100.00%
CPXPARAM_MIP_Cuts_LiftProj-Disjunctive:LiftProj 0
CPXPARAM_MIP_Cuts_LiftProj-Disjunctive:Disjunctive 0
6
Node Left Objective IInf Best_Integer Best_Bound ItCnt Gap
0+ 0 nan nan 115.1924 0.0000 nan 100.00%
0+ 0 nan nan 81.9438 0.0000 nan 100.00%
0 0 0.0000 23 81.9438 0.0000 119 100.00%
0+ 0 nan nan 80.6567 0.0000 nan 100.00%
0+ 0 nan nan 72.5973 0.0000 nan 100.00%
0+ 0 nan nan 64.2641 0.0000 nan 100.00%
0+ 0 nan nan 52.9380 0.0000 nan 100.00%
0 2 0.0000 21 52.9380 0.0000 119 100.00%
CPXPARAM_MIP_Cuts_LiftProj-Disjunctive:LiftProj 0
CPXPARAM_MIP_Cuts_LiftProj-Disjunctive:Disjunctive 0
7
Node Left Objective IInf Best_Integer Best_Bound ItCnt Gap
0+ 0 nan nan 115.1924 0.0000 nan 100.00%
0+ 0 nan nan 81.9438 0.0000 nan 100.00%
0 0 0.0000 23 81.9438 0.0000 110 100.00%
0+ 0 nan nan 71.2025 0.0000 nan 100.00%
0+ 0 nan nan 70.3682 0.0000 nan 100.00%
0+ 0 nan nan 60.6180 0.0000 nan 100.00%
0 2 0.0000 13 60.6180 0.0000 110 100.00%
CPXPARAM_MIP_Cuts_LiftProj-Disjunctive:LiftProj 0
CPXPARAM_MIP_Cuts_LiftProj-Disjunctive:Disjunctive 0
8
Node Left Objective IInf Best_Integer Best_Bound ItCnt Gap
0+ 0 nan nan 131.6037 0.0000 nan 100.00%
0+ 0 nan nan 111.2422 0.0000 nan 100.00%
0 0 0.0000 27 111.2422 0.0000 112 100.00%
0 0 0.0000 25 111.2422 LiftProj:1 113 100.00%
0+ 0 nan nan 110.4315 0.0000 nan 100.00%
0 0 0.0000 26 110.4315 LiftProj:6 135 100.00%
0 0 0.0000 25 110.4315 Cuts:7 151 100.00%
0+ 0 nan nan 108.0369 0.0000 nan 100.00%
0+ 0 nan nan 107.6746 0.0000 nan 100.00%
0+ 0 nan nan 95.6908 0.0000 nan 100.00%
0 2 0.0000 25 95.6908 0.0000 151 100.00%
CPXPARAM_MIP_Cuts_LiftProj-Disjunctive:LiftProj 2
CPXPARAM_MIP_Cuts_LiftProj-Disjunctive:Disjunctive 2
9
Node Left Objective IInf Best_Integer Best_Bound ItCnt Gap
0+ 0 nan nan 131.6037 0.0000 nan 100.00%
0+ 0 nan nan 111.2422 0.0000 nan 100.00%
0 0 0.0000 27 111.2422 0.0000 126 100.00%
0+ 0 nan nan 81.5623 0.0000 nan 100.00%
0+ 0 nan nan 81.1793 0.0000 nan 100.00%
0+ 0 nan nan 72.4663 0.0000 nan 100.00%
0+ 0 nan nan 67.1615 0.0000 nan 100.00%
0 2 0.0000 18 67.1615 0.0000 126 100.00%
CPXPARAM_MIP_Cuts_LiftProj-Disjunctive:LiftProj 0
CPXPARAM_MIP_Cuts_LiftProj-Disjunctive:Disjunctive 0
10
Node Left Objective IInf Best_Integer Best_Bound ItCnt Gap
0+ 0 nan nan 131.6037 0.0000 nan 100.00%
0+ 0 nan nan 99.6733 0.0000 nan 100.00%
0 0 0.0000 23 99.6733 0.0000 121 100.00%
0 0 0.0000 20 99.6733 LiftProj:1 130 100.00%
0+ 0 nan nan 97.3619 0.0000 nan 100.00%
0 0 0.0000 21 97.3619 Cuts:5 143 100.00%
0 0 0.0000 21 97.3619 LiftProj:1 147 100.00%
0+ 0 nan nan 97.2750 0.0000 nan 100.00%
0+ 0 nan nan 87.1745 0.0000 nan 100.00%
0 2 0.0000 20 87.1745 0.0000 147 100.00%
CPXPARAM_MIP_Cuts_LiftProj-Disjunctive:LiftProj 1
CPXPARAM_MIP_Cuts_LiftProj-Disjunctive:Disjunctive 0
11
Node Left Objective IInf Best_Integer Best_Bound ItCnt Gap
0+ 0 nan nan 131.6037 0.0000 nan 100.00%
0+ 0 nan nan 99.6733 0.0000 nan 100.00%
0 0 0.0000 23 99.6733 0.0000 127 100.00%
0+ 0 nan nan 63.9599 0.0000 nan 100.00%
0+ 0 nan nan 62.6718 0.0000 nan 100.00%
0 2 0.0000 13 62.6718 0.0000 127 100.00%
CPXPARAM_MIP_Cuts_LiftProj-Disjunctive:LiftProj 0
CPXPARAM_MIP_Cuts_LiftProj-Disjunctive:Disjunctive 0
12
Node Left Objective IInf Best_Integer Best_Bound ItCnt Gap
0+ 0 nan nan 110.3567 0.0000 nan 100.00%
0+ 0 nan nan 96.6816 0.0000 nan 100.00%
0 0 0.0000 27 96.6816 0.0000 120 100.00%
0+ 0 nan nan 91.3689 0.0000 nan 100.00%
0+ 0 nan nan 76.0951 0.0000 nan 100.00%
0 2 0.0000 24 76.0951 0.0000 120 100.00%
CPXPARAM_MIP_Cuts_LiftProj-Disjunctive:LiftProj 0
CPXPARAM_MIP_Cuts_LiftProj-Disjunctive:Disjunctive 0
13
Node Left Objective IInf Best_Integer Best_Bound ItCnt Gap
0+ 0 nan nan 110.3567 0.0000 nan 100.00%
0+ 0 nan nan 96.6816 0.0000 nan 100.00%
0 0 0.0000 27 96.6816 0.0000 117 100.00%
0+ 0 nan nan 78.4067 0.0000 nan 100.00%
0 0 0.0000 18 78.4067 Disjcuts:1 126 100.00%
0+ 0 nan nan 77.0292 0.0000 nan 100.00%
0 0 0.0000 19 77.0292 Disjcuts:6 140 100.00%
0 0 0.0000 18 77.0292 Disjcuts:8 151 100.00%
0+ 0 nan nan 72.4412 0.0000 nan 100.00%
0 2 0.0000 18 72.4412 0.0000 151 100.00%
CPXPARAM_MIP_Cuts_LiftProj-Disjunctive:LiftProj 0
CPXPARAM_MIP_Cuts_LiftProj-Disjunctive:Disjunctive 1
14
Node Left Objective IInf Best_Integer Best_Bound ItCnt Gap
0+ 0 nan nan 110.3567 0.0000 nan 100.00%
0+ 0 nan nan 82.1268 0.0000 nan 100.00%
0 0 0.0000 23 82.1268 0.0000 114 100.00%
0+ 0 nan nan 74.7672 0.0000 nan 100.00%
0 2 0.0000 19 74.7672 0.0000 114 100.00%
CPXPARAM_MIP_Cuts_LiftProj-Disjunctive:LiftProj 0
CPXPARAM_MIP_Cuts_LiftProj-Disjunctive:Disjunctive 0
15
Node Left Objective IInf Best_Integer Best_Bound ItCnt Gap
0+ 0 nan nan 110.3567 0.0000 nan 100.00%
0+ 0 nan nan 82.1268 0.0000 nan 100.00%
0 0 0.0000 23 82.1268 0.0000 111 100.00%
0+ 0 nan nan 53.3052 0.0000 nan 100.00%
0+ 0 nan nan 50.7826 0.0000 nan 100.00%
0 2 0.0000 13 50.7826 0.0000 111 100.00%
CPXPARAM_MIP_Cuts_LiftProj-Disjunctive:LiftProj 0
CPXPARAM_MIP_Cuts_LiftProj-Disjunctive:Disjunctive 0
16
Node Left Objective IInf Best_Integer Best_Bound ItCnt Gap
0+ 0 nan nan 109.2984 0.0000 nan 100.00%
0+ 0 nan nan 97.6971 0.0000 nan 100.00%
0 0 0.0000 27 97.6971 0.0000 122 100.00%
0+ 0 nan nan 97.4587 0.0000 nan 100.00%
0+ 0 nan nan 96.9730 0.0000 nan 100.00%
0+ 0 nan nan 91.7514 0.0000 nan 100.00%
0+ 0 nan nan 87.2211 0.0000 nan 100.00%
0+ 0 nan nan 84.6796 0.0000 nan 100.00%
0 2 0.0000 24 84.6796 0.0000 122 100.00%
CPXPARAM_MIP_Cuts_LiftProj-Disjunctive:LiftProj 0
CPXPARAM_MIP_Cuts_LiftProj-Disjunctive:Disjunctive 0
17
Node Left Objective IInf Best_Integer Best_Bound ItCnt Gap
0+ 0 nan nan 109.2984 0.0000 nan 100.00%
0+ 0 nan nan 97.6971 0.0000 nan 100.00%
0 0 0.0000 27 97.6971 0.0000 113 100.00%
0+ 0 nan nan 69.1781 0.0000 nan 100.00%
0+ 0 nan nan 66.1806 0.0000 nan 100.00%
0+ 0 nan nan 51.0931 0.0000 nan 100.00%
0 2 0.0000 18 51.0931 0.0000 113 100.00%
CPXPARAM_MIP_Cuts_LiftProj-Disjunctive:LiftProj 0
CPXPARAM_MIP_Cuts_LiftProj-Disjunctive:Disjunctive 0
18
Node Left Objective IInf Best_Integer Best_Bound ItCnt Gap
0+ 0 nan nan 109.2984 0.0000 nan 100.00%
0+ 0 nan nan 86.6088 0.0000 nan 100.00%
0 0 0.0000 23 86.6088 0.0000 119 100.00%
0 0 0.0000 19 86.6088 LiftProj:1 121 100.00%
0+ 0 nan nan 80.8124 0.0000 nan 100.00%
0 0 0.0000 21 80.8124 Cuts:10 163 100.00%
0 0 0.0000 20 80.8124 Cuts:6 170 100.00%
0+ 0 nan nan 73.0912 0.0000 nan 100.00%
0 2 0.0000 20 73.0912 0.0000 170 100.00%
CPXPARAM_MIP_Cuts_LiftProj-Disjunctive:LiftProj 1
CPXPARAM_MIP_Cuts_LiftProj-Disjunctive:Disjunctive 2
19
Node Left Objective IInf Best_Integer Best_Bound ItCnt Gap
0+ 0 nan nan 109.2984 0.0000 nan 100.00%
0+ 0 nan nan 86.6088 0.0000 nan 100.00%
0 0 0.0000 25 86.6088 0.0000 112 100.00%
0+ 0 nan nan 58.2160 0.0000 nan 100.00%
0 0 0.0000 14 58.2160 LiftProj:1 118 100.00%
0+ 0 nan nan 51.4760 0.0000 nan 100.00%
0 0 0.0000 16 51.4760 Cuts:7 138 100.00%
0+ 0 nan nan 34.5790 0.0000 nan 100.00%
0 0 0.0000 14 34.5790 Cuts:2 155 100.00%
0+ 0 nan nan 23.2353 0.0000 nan 100.00%
0 2 0.0000 13 23.2353 0.0000 155 100.00%
CPXPARAM_MIP_Cuts_LiftProj-Disjunctive:LiftProj 1
CPXPARAM_MIP_Cuts_LiftProj-Disjunctive:Disjunctive 1
20
Node Left Objective IInf Best_Integer Best_Bound ItCnt Gap
0+ 0 nan nan 93.3792 0.0000 nan 100.00%
0+ 0 nan nan 84.6822 0.0000 nan 100.00%
0 0 0.0000 27 84.6822 0.0000 123 100.00%
0+ 0 nan nan 70.9667 0.0000 nan 100.00%
0 0 0.0000 24 70.9667 Cuts:4 137 100.00%
0+ 0 nan nan 69.4584 0.0000 nan 100.00%
0 0 0.0000 24 69.4584 Cuts:12 159 100.00%
0 0 0.0000 24 69.4584 Cuts:10 197 100.00%
0+ 0 nan nan 66.1408 0.0000 nan 100.00%
0+ 0 nan nan 56.1186 0.0000 nan 100.00%
0 2 0.0000 24 56.1186 0.0000 197 100.00%
CPXPARAM_MIP_Cuts_LiftProj-Disjunctive:LiftProj 2
CPXPARAM_MIP_Cuts_LiftProj-Disjunctive:Disjunctive 2
21
Node Left Objective IInf Best_Integer Best_Bound ItCnt Gap
0+ 0 nan nan 93.3792 0.0000 nan 100.00%
0+ 0 nan nan 84.6822 0.0000 nan 100.00%
0 0 0.0000 27 84.6822 0.0000 129 100.00%
0+ 0 nan nan 53.3525 0.0000 nan 100.00%
0 0 0.0000 18 53.3525 LiftProj:1 134 100.00%
0 0 0.0000 20 53.3525 Cuts:13 167 100.00%
0+ 0 nan nan 45.7414 0.0000 nan 100.00%
0 2 0.0000 18 45.7414 0.0000 167 100.00%
CPXPARAM_MIP_Cuts_LiftProj-Disjunctive:LiftProj 0
CPXPARAM_MIP_Cuts_LiftProj-Disjunctive:Disjunctive 0
22
Node Left Objective IInf Best_Integer Best_Bound ItCnt Gap
0+ 0 nan nan 93.3792 0.0000 nan 100.00%
0+ 0 nan nan 77.4137 0.0000 nan 100.00%
0 0 0.0000 23 77.4137 0.0000 122 100.00%
0+ 0 nan nan 61.3589 0.0000 nan 100.00%
0 0 0.0000 19 61.3589 LiftProj:2 127 100.00%
0+ 0 nan nan 58.3501 0.0000 nan 100.00%
0 0 0.0000 19 58.3501 Cuts:9 166 100.00%
0 0 0.0000 21 58.3501 Cuts:5 201 100.00%
0+ 0 nan nan 48.4870 0.0000 nan 100.00%
0 2 0.0000 20 48.4870 0.0000 201 100.00%
CPXPARAM_MIP_Cuts_LiftProj-Disjunctive:LiftProj 0
CPXPARAM_MIP_Cuts_LiftProj-Disjunctive:Disjunctive 0
23
Node Left Objective IInf Best_Integer Best_Bound ItCnt Gap
0+ 0 nan nan 93.3792 0.0000 nan 100.00%
0+ 0 nan nan 77.4137 0.0000 nan 100.00%
0 0 0.0000 23 77.4137 0.0000 112 100.00%
0+ 0 nan nan 50.0593 0.0000 nan 100.00%
0+ 0 nan nan 37.3427 0.0000 nan 100.00%
0 2 0.0000 13 37.3427 0.0000 112 100.00%
CPXPARAM_MIP_Cuts_LiftProj-Disjunctive:LiftProj 0
CPXPARAM_MIP_Cuts_LiftProj-Disjunctive:Disjunctive 0
24
Node Left Objective IInf Best_Integer Best_Bound ItCnt Gap
0+ 0 nan nan 94.5045 0.0000 nan 100.00%
0+ 0 nan nan 83.7373 0.0000 nan 100.00%
0 0 0.0000 27 83.7373 0.0000 126 100.00%
0+ 0 nan nan 81.1267 0.0000 nan 100.00%
0 0 0.0000 24 81.1267 LiftProj:2 135 100.00%
0+ 0 nan nan 79.0526 0.0000 nan 100.00%
0 0 0.0000 24 79.0526 LiftProj:1 146 100.00%
0 0 0.0000 25 79.0526 Cuts:3 162 100.00%
0+ 0 nan nan 66.7264 0.0000 nan 100.00%
0 2 0.0000 24 66.7264 0.0000 162 100.00%
CPXPARAM_MIP_Cuts_LiftProj-Disjunctive:LiftProj 0
CPXPARAM_MIP_Cuts_LiftProj-Disjunctive:Disjunctive 1
25
Node Left Objective IInf Best_Integer Best_Bound ItCnt Gap
0+ 0 nan nan 94.5045 0.0000 nan 100.00%
0+ 0 nan nan 83.7373 0.0000 nan 100.00%
0 0 0.0000 27 83.7373 0.0000 113 100.00%
0+ 0 nan nan 57.0887 0.0000 nan 100.00%
0+ 0 nan nan 44.4023 0.0000 nan 100.00%
0 2 0.0000 18 44.4023 0.0000 113 100.00%
CPXPARAM_MIP_Cuts_LiftProj-Disjunctive:LiftProj 0
CPXPARAM_MIP_Cuts_LiftProj-Disjunctive:Disjunctive 0
26
Node Left Objective IInf Best_Integer Best_Bound ItCnt Gap
0+ 0 nan nan 94.5045 0.0000 nan 100.00%
0+ 0 nan nan 77.4984 0.0000 nan 100.00%
0 0 0.0000 22 77.4984 0.0000 104 100.00%
0+ 0 nan nan 68.7941 0.0000 nan 100.00%
0 0 0.0000 19 68.7941 LiftProj:1 110 100.00%
0+ 0 nan nan 68.7770 0.0000 nan 100.00%
0 0 0.0000 20 68.7770 Cuts:3 126 100.00%
0 0 0.0000 19 68.7770 Cuts:3 149 100.00%
0+ 0 nan nan 67.9225 0.0000 nan 100.00%
0 2 0.0000 19 67.9225 0.0000 149 100.00%
CPXPARAM_MIP_Cuts_LiftProj-Disjunctive:LiftProj 0
CPXPARAM_MIP_Cuts_LiftProj-Disjunctive:Disjunctive 1
27
Node Left Objective IInf Best_Integer Best_Bound ItCnt Gap
0+ 0 nan nan 94.5045 0.0000 nan 100.00%
0 0 0.0000 23 94.5045 0.0000 105 100.00%
0+ 0 nan nan 26.1158 0.0000 nan 100.00%
0 2 0.0000 13 26.1158 0.0000 105 100.00%
CPXPARAM_MIP_Cuts_LiftProj-Disjunctive:LiftProj 0
CPXPARAM_MIP_Cuts_LiftProj-Disjunctive:Disjunctive 0
28
Node Left Objective IInf Best_Integer Best_Bound ItCnt Gap
0+ 0 nan nan 133.7092 0.0000 nan 100.00%
0+ 0 nan nan 129.6212 0.0000 nan 100.00%
0+ 0 nan nan 108.6480 0.0000 nan 100.00%
0 0 0.0000 27 108.6480 0.0000 115 100.00%
0 0 0.0000 25 108.6480 LiftProj:1 126 100.00%
0+ 0 nan nan 104.2364 0.0000 nan 100.00%
0 0 0.0000 26 104.2364 LiftProj:2 146 100.00%
0+ 0 nan nan 104.1474 0.0000 nan 100.00%
0+ 0 nan nan 103.2715 0.0000 nan 100.00%
0+ 0 nan nan 99.1616 0.0000 nan 100.00%
0 2 0.0000 25 99.1616 0.0000 146 100.00%
CPXPARAM_MIP_Cuts_LiftProj-Disjunctive:LiftProj 2
CPXPARAM_MIP_Cuts_LiftProj-Disjunctive:Disjunctive 0
29
Node Left Objective IInf Best_Integer Best_Bound ItCnt Gap
0+ 0 nan nan 133.7092 0.0000 nan 100.00%
0+ 0 nan nan 129.6212 0.0000 nan 100.00%
0 0 0.0000 27 129.6212 0.0000 114 100.00%
0+ 0 nan nan 97.5918 0.0000 nan 100.00%
0 0 0.0000 18 97.5918 Cuts:6 120 100.00%
0+ 0 nan nan 84.6484 0.0000 nan 100.00%
0 0 0.0000 18 84.6484 Cuts:9 144 100.00%
0 0 0.0000 19 84.6484 Cuts:9 186 100.00%
0+ 0 nan nan 75.3529 0.0000 nan 100.00%
0+ 0 nan nan 70.7859 0.0000 nan 100.00%
0 2 0.0000 18 70.7859 0.0000 186 100.00%
CPXPARAM_MIP_Cuts_LiftProj-Disjunctive:LiftProj 0
CPXPARAM_MIP_Cuts_LiftProj-Disjunctive:Disjunctive 1
30
Node Left Objective IInf Best_Integer Best_Bound ItCnt Gap
0+ 0 nan nan 133.7092 0.0000 nan 100.00%
0+ 0 nan nan 114.7297 0.0000 nan 100.00%
0 0 0.0000 22 114.7297 0.0000 117 100.00%
0+ 0 nan nan 105.5743 0.0000 nan 100.00%
0 0 0.0000 20 105.5743 Disjcuts:2 120 100.00%
0+ 0 nan nan 94.2191 0.0000 nan 100.00%
0 0 0.0000 20 94.2191 Cuts:3 140 100.00%
0 0 0.0000 19 94.2191 Disjcuts:1 142 100.00%
0+ 0 nan nan 83.8364 0.0000 nan 100.00%
0 2 0.0000 19 83.8364 0.0000 142 100.00%
CPXPARAM_MIP_Cuts_LiftProj-Disjunctive:LiftProj 0
CPXPARAM_MIP_Cuts_LiftProj-Disjunctive:Disjunctive 1
31
Node Left Objective IInf Best_Integer Best_Bound ItCnt Gap
0+ 0 nan nan 133.7092 0.0000 nan 100.00%
0+ 0 nan nan 114.7297 0.0000 nan 100.00%
0 0 0.0000 22 114.7297 0.0000 119 100.00%
0+ 0 nan nan 72.7936 0.0000 nan 100.00%
0 0 0.0000 13 72.7936 Disjcuts:2 125 100.00%
0+ 0 nan nan 67.0189 0.0000 nan 100.00%
0 0 0.0000 14 67.0189 Cuts:14 145 100.00%
0 0 0.0000 12 67.0189 Cuts:4 154 100.00%
0+ 0 nan nan 55.0667 0.0000 nan 100.00%
0 2 0.0000 13 55.0667 0.0000 154 100.00%
CPXPARAM_MIP_Cuts_LiftProj-Disjunctive:LiftProj 2
CPXPARAM_MIP_Cuts_LiftProj-Disjunctive:Disjunctive 1
32
Node Left Objective IInf Best_Integer Best_Bound ItCnt Gap
0+ 0 nan nan 110.7059 0.0000 nan 100.00%
0+ 0 nan nan 93.8685 0.0000 nan 100.00%
0+ 0 nan nan 88.1652 0.0000 nan 100.00%
0 0 0.0000 27 88.1652 0.0000 130 100.00%
0 0 0.0000 26 88.1652 Cuts:8 144 100.00%
0 0 0.0000 28 88.1652 Cuts:21 162 100.00%
0+ 0 nan nan 81.1453 0.0000 nan 100.00%
0 2 0.0000 25 81.1453 0.0000 162 100.00%
CPXPARAM_MIP_Cuts_LiftProj-Disjunctive:LiftProj 1
CPXPARAM_MIP_Cuts_LiftProj-Disjunctive:Disjunctive 1
33
Node Left Objective IInf Best_Integer Best_Bound ItCnt Gap
0+ 0 nan nan 110.7059 0.0000 nan 100.00%
0+ 0 nan nan 93.8685 0.0000 nan 100.00%
0 0 0.0000 27 93.8685 0.0000 120 100.00%
0+ 0 nan nan 67.8253 0.0000 nan 100.00%
0 0 0.0000 18 67.8253 Cuts:7 131 100.00%
0 0 0.0000 18 67.8253 Cuts:5 147 100.00%
0 0 0.0000 19 67.8253 Cuts:16 187 100.00%
0+ 0 nan nan 62.4868 0.0000 nan 100.00%
0+ 0 nan nan 54.0770 0.0000 nan 100.00%
0 2 0.0000 18 54.0770 0.0000 187 100.00%
CPXPARAM_MIP_Cuts_LiftProj-Disjunctive:LiftProj 0
CPXPARAM_MIP_Cuts_LiftProj-Disjunctive:Disjunctive 0
34
Node Left Objective IInf Best_Integer Best_Bound ItCnt Gap
0+ 0 nan nan 110.7059 0.0000 nan 100.00%
0+ 0 nan nan 74.9711 0.0000 nan 100.00%
0 0 0.0000 23 74.9711 0.0000 119 100.00%
0+ 0 nan nan 70.1819 0.0000 nan 100.00%
0 0 0.0000 19 70.1819 LiftProj:1 125 100.00%
0+ 0 nan nan 67.4782 0.0000 nan 100.00%
0 0 0.0000 19 67.4782 Disjcuts:1 126 100.00%
0 0 0.0000 20 67.4782 Cuts:2 134 100.00%
0+ 0 nan nan 60.5671 0.0000 nan 100.00%
0+ 0 nan nan 57.0867 0.0000 nan 100.00%
0 2 0.0000 19 57.0867 0.0000 134 100.00%
CPXPARAM_MIP_Cuts_LiftProj-Disjunctive:LiftProj 0
CPXPARAM_MIP_Cuts_LiftProj-Disjunctive:Disjunctive 0
35
Node Left Objective IInf Best_Integer Best_Bound ItCnt Gap
0+ 0 nan nan 110.7059 0.0000 nan 100.00%
0+ 0 nan nan 74.9711 0.0000 nan 100.00%
0 0 0.0000 24 74.9711 0.0000 114 100.00%
0+ 0 nan nan 57.9339 0.0000 nan 100.00%
0+ 0 nan nan 55.7899 0.0000 nan 100.00%
0+ 0 nan nan 43.3086 0.0000 nan 100.00%
0 2 0.0000 14 43.3086 0.0000 114 100.00%
CPXPARAM_MIP_Cuts_LiftProj-Disjunctive:LiftProj 0
CPXPARAM_MIP_Cuts_LiftProj-Disjunctive:Disjunctive 0
36
Node Left Objective IInf Best_Integer Best_Bound ItCnt Gap
0+ 0 nan nan 123.7135 0.0000 nan 100.00%
0+ 0 nan nan 108.6148 0.0000 nan 100.00%
0 0 0.0000 27 108.6148 0.0000 117 100.00%
0+ 0 nan nan 98.7082 0.0000 nan 100.00%
0 0 0.0000 24 98.7082 Cuts:6 127 100.00%
0+ 0 nan nan 94.3601 0.0000 nan 100.00%
0 0 0.0000 24 94.3601 Cuts:2 148 100.00%
0 0 0.0000 24 94.3601 Cuts:8 182 100.00%
0+ 0 nan nan 86.9035 0.0000 nan 100.00%
0+ 0 nan nan 81.2823 0.0000 nan 100.00%
0 2 0.0000 24 81.2823 0.0000 182 100.00%
CPXPARAM_MIP_Cuts_LiftProj-Disjunctive:LiftProj 1
CPXPARAM_MIP_Cuts_LiftProj-Disjunctive:Disjunctive 3
37
Node Left Objective IInf Best_Integer Best_Bound ItCnt Gap
0+ 0 nan nan 123.7135 0.0000 nan 100.00%
0+ 0 nan nan 108.6148 0.0000 nan 100.00%
0 0 0.0000 27 108.6148 0.0000 118 100.00%
0+ 0 nan nan 74.7826 0.0000 nan 100.00%
0+ 0 nan nan 74.5456 0.0000 nan 100.00%
0+ 0 nan nan 61.3888 0.0000 nan 100.00%
0 2 0.0000 18 61.3888 0.0000 118 100.00%
CPXPARAM_MIP_Cuts_LiftProj-Disjunctive:LiftProj 0
CPXPARAM_MIP_Cuts_LiftProj-Disjunctive:Disjunctive 0
38
Node Left Objective IInf Best_Integer Best_Bound ItCnt Gap
0+ 0 nan nan 123.7135 0.0000 nan 100.00%
0+ 0 nan nan 89.1896 0.0000 nan 100.00%
0 0 0.0000 23 89.1896 0.0000 119 100.00%
0+ 0 nan nan 83.5087 0.0000 nan 100.00%
0+ 0 nan nan 64.2486 0.0000 nan 100.00%
0+ 0 nan nan 60.8203 0.0000 nan 100.00%
0+ 0 nan nan 50.1209 0.0000 nan 100.00%
0 2 0.0000 19 50.1209 0.0000 119 100.00%
CPXPARAM_MIP_Cuts_LiftProj-Disjunctive:LiftProj 0
CPXPARAM_MIP_Cuts_LiftProj-Disjunctive:Disjunctive 0
39
Node Left Objective IInf Best_Integer Best_Bound ItCnt Gap
0+ 0 nan nan 123.7135 0.0000 nan 100.00%
0+ 0 nan nan 89.1896 0.0000 nan 100.00%
0 0 0.0000 24 89.1896 0.0000 117 100.00%
0+ 0 nan nan 50.1463 0.0000 nan 100.00%
0+ 0 nan nan 44.8477 0.0000 nan 100.00%
0 2 0.0000 13 44.8477 0.0000 117 100.00%
CPXPARAM_MIP_Cuts_LiftProj-Disjunctive:LiftProj 0
CPXPARAM_MIP_Cuts_LiftProj-Disjunctive:Disjunctive 0
